c 
p cnf 114 188
6 -12 21 0
6 -12 -21 0
-9 2 -10 0
-14 22 23 0
-14 22 -23 0
-14 -22 23 0
-14 -22 -23 0
18 6 24 0
-24 8 16 0
-14 -9 25 0
-14 -9 -25 0
-10 -16 26 0
-26 -13 27 0
-27 8 -11 0
11 10 28 0
-28 3 29 0
-29 -6 14 0
-3 30 31 0
-3 30 -31 0
-3 -30 31 0
-3 -30 -31 0
-20 -13 -1 0
-15 4 -18 0
-11 15 -13 0
16 -7 32 0
-32 13 -17 0
4 13 33 0
4 13 -33 0
-5 1 34 0
-34 -18 35 0
-35 -8 -16 0
-20 -14 36 0
-36 5 -1 0
-17 -18 37 0
-37 -15 20 0
4 -6 38 0
-38 -11 7 0
-20 9 39 0
-20 9 -39 0
15 6 18 0
19 40 41 0
19 40 -41 0
19 -40 41 0
19 -40 -41 0
19 -13 42 0
-42 -2 12 0
-13 20 43 0
-43 -3 44 0
-44 6 5 0
-13 15 45 0
-45 -14 4 0
-7 19 46 0
-7 19 -46 0
-1 -4 47 0
-47 16 48 0
-48 -20 14 0
6 -20 8 0
-12 49 50 0
-12 49 -50 0
-12 -49 50 0
-12 -49 -50 0
-14 51 52 0
-14 51 -52 0
-14 -51 52 0
-14 -51 -52 0
-10 19 53 0
-53 -11 4 0
-4 -11 54 0
-54 -19 -3 0
12 -18 55 0
12 -18 -55 0
-4 56 57 0
-4 56 -57 0
-4 -56 57 0
-4 -56 -57 0
5 -14 -17 0
4 10 58 0
-58 16 59 0
-59 -3 7 0
-1 60 61 0
-1 60 -61 0
-1 -60 61 0
-1 -60 -61 0
10 -8 62 0
-62 -1 63 0
-63 19 -11 0
-13 -8 -7 0
-19 7 -2 0
4 18 64 0
4 18 -64 0
-14 -18 65 0
-65 4 66 0
-66 6 -11 0
-14 20 67 0
-67 12 -4 0
-6 8 68 0
-68 -16 69 0
-69 18 11 0
-7 70 71 0
-7 70 -71 0
-7 -70 71 0
-7 -70 -71 0
11 -3 72 0
-72 -10 17 0
-6 13 73 0
-73 -11 74 0
-74 12 -8 0
-14 3 75 0
-14 3 -75 0
-10 16 76 0
-76 1 17 0
8 77 78 0
8 77 -78 0
8 -77 78 0
8 -77 -78 0
-10 -6 1 0
6 -18 79 0
-79 13 80 0
-80 7 -15 0
-14 -15 81 0
-81 -11 82 0
-82 -13 -18 0
2 19 83 0
2 19 -83 0
13 14 84 0
13 14 -84 0
-3 85 86 0
-3 85 -86 0
-3 -85 86 0
-3 -85 -86 0
-11 19 87 0
-11 19 -87 0
-11 16 88 0
-88 1 89 0
-89 10 5 0
13 18 90 0
-90 3 9 0
17 15 91 0
17 15 -91 0
17 -6 92 0
-92 4 20 0
16 18 -5 0
8 12 3 0
15 -19 93 0
-93 -5 94 0
-94 4 -9 0
6 5 95 0
-95 -15 96 0
-96 9 19 0
12 8 97 0
-97 2 3 0
4 16 -7 0
19 98 99 0
19 98 -99 0
19 -98 99 0
19 -98 -99 0
18 100 101 0
18 100 -101 0
18 -100 101 0
18 -100 -101 0
-13 5 14 0
-16 -4 102 0
-16 -4 -102 0
-6 4 8 0
-16 -11 103 0
-103 -14 104 0
-104 15 -19 0
-16 14 105 0
-105 6 -15 0
-1 -6 106 0
-1 -6 -106 0
14 -8 12 0
-18 -6 107 0
-107 -9 -7 0
1 -12 10 0
-2 8 108 0
-108 -19 109 0
-109 -20 1 0
11 1 110 0
11 1 -110 0
1 111 112 0
1 111 -112 0
1 -111 112 0
1 -111 -112 0
5 113 114 0
5 113 -114 0
5 -113 114 0
5 -113 -114 0
